NAME : single
TYPE : ATSP
DIMENSION : 12
EDGE_WEIGHT_TYPE : EXPLICIT
EDGE_WEIGHT_FORMAT : FULL_MATRIX
EDGE_WEIGHT_SECTION
0 727 869 639 621 575 602 208 181 231 290 169 
0 0 164 146 231 493 441 649 663 565 692 617 
0 164 0 0 121 538 486 689 675 599 698 654 
0 146 186 0 194 434 388 479 495 429 525 484 
0 231 192 153 0 372 321 423 409 335 434 394 
0 493 538 434 372 0 224 391 416 357 462 393 
0 441 486 388 321 284 0 386 373 338 419 358 
0 649 689 479 423 391 386 0 94 217 100 222 
0 663 675 495 409 416 373 94 0 0 0 122 
0 565 599 429 335 357 338 217 122 0 122 0 
0 692 698 525 434 462 419 100 195 281 0 195 
0 617 654 484 394 393 358 222 282 160 121 0 
